p cnf 1 75
1 0
-1 0
-1 0
1 0
1 0
-1 0
-1 0
-1 0
-1 0
1 0
1 0
1 0
1 0
1 0
1 0
-1 0
1 0
1 0
1 0
-1 0
-1 0
-1 0
-1 0
1 0
-1 0
-1 0
1 0
-1 0
1 0
-1 0
1 0
1 0
1 0
-1 0
-1 0
1 0
1 0
1 0
1 0
-1 0
-1 0
1 0
-1 0
-1 0
1 0
-1 0
-1 0
-1 0
-1 0
1 0
-1 0
1 0
1 0
1 0
1 0
1 0
1 0
1 0
1 0
-1 0
1 0
1 0
1 0
1 0
1 0
1 0
-1 0
-1 0
-1 0
1 0
-1 0
1 0
1 0
-1 0
1 0
